Academic license - for non-commercial use only
Gurobi Optimizer version 9.0.1 build v9.0.1rc0 (mac64)
Optimize a model with 40411 rows, 813 columns and 120419 nonzeros
Model fingerprint: 0x64eca98f
Model has 4 quadratic constraints
Coefficient statistics:
  Matrix range     [5e-06, 2e+00]
  QMatrix range    [1e+00, 1e+00]
  Objective range  [1e+00, 1e+00]
  Bounds range     [0e+00, 0e+00]
  RHS range        [1e-04, 1e+00]
Presolve removed 1796 rows and 208 columns
Presolve time: 0.04s
Presolved: 38615 rows, 605 columns, 115637 nonzeros
Presolved model has 3 second-order cone constraints
Ordering time: 2.67s
Elapsed ordering time = 5s
Ordering time: 5.05s

Barrier statistics:
 Dense cols : 200
 Free vars  : 200
 AA' NZ     : 3.899e+06
 Factor NZ  : 1.134e+07 (roughly 100 MBytes of memory)
 Factor Ops : 3.448e+09 (less than 1 second per iteration)
 Threads    : 4

                  Objective                Residual
Iter       Primal          Dual         Primal    Dual     Compl     Time
   0   2.44114634e+00 -1.00200000e+00  2.78e+00 2.00e-01  2.76e-01     9s
   1  -4.72352249e-01 -9.64089386e-01  2.34e+00 1.65e-01  2.31e-01     9s
   2   8.71654066e-01 -9.36392539e-01  1.83e+00 1.22e-01  1.78e-01     9s
   3   5.83334827e-01 -9.72472269e-01  1.78e+00 6.57e-02  1.33e-01     9s
   4   5.54835046e+00 -1.55945077e+00  1.58e+00 6.01e-02  1.21e-01     9s
   5   6.50785251e+00 -3.55420620e+00  1.38e+00 3.81e-02  9.17e-02    10s
   6   1.57276457e+01 -7.24026738e+00  1.04e+00 2.99e-02  7.16e-02    10s
   7   2.45013966e+01 -1.91159932e+01  8.33e-01 1.35e-02  4.32e-02    10s
   8   7.05677966e+01 -6.09886469e+01  2.39e-01 2.15e-03  1.27e-02    10s
   9   3.75430319e+01 -5.59067867e+01  5.61e-02 1.41e-04  3.79e-03    11s
  10   1.73960105e+01 -3.36061985e+01  6.34e-03 1.55e-10  1.41e-03    11s
  11   5.88829480e+00 -1.42641653e+01  7.39e-04 1.12e-12  5.28e-04    11s
  12   1.92577088e+00 -2.38417053e+00  1.34e-04 4.77e-13  1.12e-04    12s
  13   1.19682808e+00 -5.78375139e-01  7.26e-05 5.86e-12  4.60e-05    12s
  14   3.90698985e-01 -3.86220314e-01  1.72e-05 4.79e-12  2.01e-05    12s
  15   2.23448932e-01 -3.77357256e-02  6.43e-06 3.26e-12  6.74e-06    12s
  16   1.23135339e-01  3.57353533e-02  1.92e-06 9.07e-12  2.25e-06    13s
  17   9.15599938e-02  5.84003674e-02  5.07e-07 1.34e-11  8.55e-07    13s
  18   8.33607677e-02  7.21989059e-02  1.63e-07 4.24e-12  2.88e-07    13s
  19   8.16074763e-02  7.55750790e-02  9.68e-08 7.60e-12  1.55e-07    13s
  20   8.07075251e-02  7.68347980e-02  6.43e-08 1.42e-11  9.98e-08    13s
  21   7.97925490e-02  7.78622339e-02  3.22e-08 1.03e-11  4.98e-08    14s
  22   7.94256096e-02  7.86291441e-02  1.99e-08 1.24e-11  2.05e-08    14s
  23   7.91072034e-02  7.87109464e-02  8.83e-09 1.95e-11  1.02e-08    14s
  24   7.88722796e-02  7.88165548e-02  1.18e-08 4.50e-11  1.44e-09    14s
  25   7.88497452e-02  7.88434343e-02  2.66e-09 3.83e-11  1.63e-10    15s
  26   7.88448162e-02  7.88446212e-02  1.72e-12 1.05e-12  5.02e-12    15s

Barrier solved model in 26 iterations and 14.91 seconds
Optimal objective 7.88448162e-02

